Minimize
  - 4 y_0 - 2 y_1 - 6 y_2 - 23 y_3 - 19 y_4 - 14 y_5 - 22 y_6 - 15 y_7
   - 20 y_8 - 20 y_9 - 13 y_10 - 19 y_11 - 3 y_12 - 21 y_13 - 22 y_14
   - 13 y_15 - 23 y_16 - 13 y_17 - 16 y_18 - 16 y_19 - 20 y_20 - 22 y_21
   - 18 y_22 - 18 y_23 - 6 y_24 - 16 y_25 - 11 y_26 - 20 y_27 - 20 y_28
   - 8 y_29 - 4 y_30 - 9 y_31 - 15 y_32 - 16 y_33 - 12 y_34 - 10 y_35
   - 16 y_36 - 26 y_37 - 13 y_38 - 17 y_39 - 15 y_41 - 16 y_42 - 22 y_43
   - 21 y_44 - 11 y_45 - 25 y_46 - 23 y_47 - 20 y_48 - 20 y_49
   + 774 Constant
Subject To
 c_0: y_20 = 1
 c_1_0: y_0 + y_24 + y_30 >= 1
 c_1_1: y_1 + y_12 + y_40 >= 1
 c_1_2: y_2 >= 1
 c_1_3: y_3 >= 1
 c_1_4: y_4 + y_28 >= 1
 c_1_5: y_5 >= 1
 c_1_6: y_6 + y_14 + y_28 >= 1
 c_1_7: y_7 + y_33 + y_42 >= 1
 c_1_8: y_8 + y_49 >= 1
 c_1_9: y_9 + y_27 + y_48 >= 1
 c_1_10: y_10 >= 1
 c_1_11: y_11 >= 1
 c_1_12: y_1 + y_12 >= 1
 c_1_13: y_13 >= 1
 c_1_14: y_6 + y_14 + y_28 >= 1
 c_1_15: y_15 >= 1
 c_1_16: y_16 + y_43 >= 1
 c_1_17: y_17 >= 1
 c_1_18: y_18 >= 1
 c_1_19: y_19 >= 1
 c_1_20: y_20 + y_44 + y_49 >= 1
 c_1_21: y_21 + y_27 >= 1
 c_1_22: y_22 + y_23 >= 1
 c_1_23: y_22 + y_23 >= 1
 c_1_24: y_0 + y_24 + y_30 >= 1
 c_1_25: y_25 + y_36 >= 1
 c_1_26: y_26 + y_38 + y_45 >= 1
 c_1_27: y_9 + y_21 + y_27 + y_48 >= 1
 c_1_28: y_4 + y_6 + y_14 + y_28 >= 1
 c_1_29: y_29 >= 1
 c_1_30: y_0 + y_24 + y_30 >= 1
 c_1_31: y_31 >= 1
 c_1_32: y_32 >= 1
 c_1_33: y_7 + y_33 + y_42 >= 1
 c_1_34: y_34 >= 1
 c_1_35: y_35 >= 1
 c_1_36: y_25 + y_36 >= 1
 c_1_37: y_37 >= 1
 c_1_38: y_26 + y_38 + y_45 >= 1
 c_1_39: y_39 >= 1
 c_1_40: y_1 + y_40 >= 1
 c_1_41: y_41 >= 1
 c_1_42: y_7 + y_33 + y_42 >= 1
 c_1_43: y_16 + y_43 >= 1
 c_1_44: y_20 + y_44 + y_49 >= 1
 c_1_45: y_26 + y_38 + y_45 >= 1
 c_1_46: y_46 >= 1
 c_1_47: y_47 >= 1
 c_1_48: y_9 + y_27 + y_48 >= 1
 c_1_49: y_8 + y_20 + y_44 + y_49 >= 1
Bounds
 Constant = 1
Binaries
 y_0 y_1 y_2 y_3 y_4 y_5 y_6 y_7 y_8 y_9 y_10 y_11 y_12 y_13 y_14 y_15 y_16
 y_17 y_18 y_19 y_20 y_21 y_22 y_23 y_24 y_25 y_26 y_27 y_28 y_29 y_30 y_31
 y_32 y_33 y_34 y_35 y_36 y_37 y_38 y_39 y_40 y_41 y_42 y_43 y_44 y_45 y_46
 y_47 y_48 y_49
End
